32
25
0 25 28 29
1 25 26 28 30
2 25 28 29
3 25 28 29 30 31
4 25 26 29
5 25 28 29 30
6 25 28 29 30
7 25 28 29 30
8 28
9 25 26 28 29 30
10 25 26 29 30
11 25 28
12 25 29 30
13 25 26 28
14 28
15
16 27 28 30
17 26
18 25 26 29
19 26 28 30
20
21 26
22 29
23
24
